certificates/rado_a5_c57_N12.cnf
c Rad2 upper bound instance: x1 + 5*x2 - x3 = 57, interval [1,12]
p cnf 12 48
1 4 12 0
-1 -4 -12 0
2 5 12 0
-2 -5 -12 0
1 3 11 0
-1 -3 -11 0
3 6 12 0
-3 -6 -12 0
2 4 11 0
-2 -4 -11 0
4 7 12 0
-4 -7 -12 0
3 5 11 0
-3 -5 -11 0
5 8 12 0
-5 -8 -12 0
4 6 11 0
-4 -6 -11 0
6 9 12 0
-6 -9 -12 0
5 7 11 0
-5 -7 -11 0
7 10 12 0
-7 -10 -12 0
1 8 10 0
-1 -8 -10 0
6 8 11 0
-6 -8 -11 0
8 11 12 0
-8 -11 -12 0
2 9 10 0
-2 -9 -10 0
7 9 11 0
-7 -9 -11 0
9 12 0
-9 -12 0
3 10 0
-3 -10 0
8 10 11 0
-8 -10 -11 0
4 10 11 0
-4 -10 -11 0
9 11 0
-9 -11 0
5 10 12 0
-5 -10 -12 0
10 11 12 0
-10 -11 -12 0
