certificates/rado_a5_c57_N12.drat
-11 -12 0
d -8 -11 -12 0
-12 0
9 0
-11 0
8 0
10 0
-3 0
-1 0
-2 0
0
